words_hard_train/7372.qaiger
aag 115 16 0 1 99
2
4
8
12
16
20
24
32
34
38
42
44
54
72
90
108
230
6 2 4
10 7 9
14 11 12
18 14 16
22 18 20
26 22 25
28 23 24
30 27 29
36 33 35
40 36 39
46 43 45
48 42 44
50 47 49
52 40 51
56 55 3
58 54 2
60 57 59
62 49 61
64 48 60
66 63 65
68 52 67
70 65 59
74 73 5
76 72 4
78 75 77
80 70 79
82 71 78
84 81 83
86 68 85
88 83 77
92 91 9
94 90 8
96 93 95
98 88 97
100 89 96
102 99 101
104 86 103
106 31 104
110 108 13
112 109 12
114 111 113
116 101 95
118 115 117
120 114 116
122 119 121
124 15 17
126 125 19
128 69 84
130 129 87
132 126 130
134 3 5
136 135 7
138 37 38
140 139 41
142 136 140
144 6 8
146 145 11
148 41 50
150 149 53
152 147 150
154 143 153
156 34 2
158 157 37
160 137 141
162 158 161
164 35 3
166 165 32
168 166 45
170 162 169
172 154 171
174 10 13
176 175 15
178 53 66
180 179 69
182 177 181
184 173 183
186 146 151
188 184 187
190 133 189
192 176 180
194 190 193
196 127 131
198 195 197
200 19 21
202 201 23
204 87 102
206 205 105
208 202 206
210 199 209
212 203 207
214 211 213
216 122 214
218 106 216
220 107 217
222 30 105
224 123 215
226 223 225
228 220 227
230 219 229
i0 1 x1[1]
i1 1 x1[2]
i2 1 x1[3]
i3 1 x1[4]
i4 1 x1[5]
i5 1 x1[6]
i6 1 x1[7]
i7 2 y1[0]
i8 2 y1[1]
i9 2 y1[2]
i10 2 y1[3]
i11 1 x1[0]
i12 2 y1[4]
i13 2 y1[5]
i14 2 y1[6]
i15 2 y1[7]
o0 bv[0]
c
simplified
  >=
    add
      1 x1
      -118
    add
      2 y1
      << 3
        1 x1
