words_hard_train/7372.qaiger.qdimacs
p cnf 115 298
a 1 2 4 6 8 10 12 22 0
e 3 5 7 9 11 13 14 15 16 17 18 19 20 21 23 24 25 26 27 28 29 30 31 32 33 34 35 36 37 38 39 40 41 42 43 44 45 46 47 48 49 50 51 52 53 54 55 56 57 58 59 60 61 62 63 64 65 66 67 68 69 70 71 72 73 74 75 76 77 78 79 80 81 82 83 84 85 86 87 88 89 90 91 92 93 94 95 96 97 98 99 100 101 102 103 104 105 106 107 108 109 110 111 112 113 114 115 0
-1 -2 3 0
1 -3 0
2 -3 0
3 4 5 0
-3 -5 0
-4 -5 0
5 -6 7 0
-5 -7 0
6 -7 0
-7 -8 9 0
7 -9 0
8 -9 0
-9 -10 11 0
9 -11 0
10 -11 0
-11 12 13 0
11 -13 0
-12 -13 0
11 -12 14 0
-11 -14 0
12 -14 0
13 14 15 0
-13 -15 0
-14 -15 0
16 17 18 0
-16 -18 0
-17 -18 0
-18 19 20 0
18 -20 0
-19 -20 0
21 22 23 0
-21 -23 0
-22 -23 0
-21 -22 24 0
21 -24 0
22 -24 0
23 24 25 0
-23 -25 0
-24 -25 0
-20 25 26 0
20 -26 0
-25 -26 0
27 1 28 0
-27 -28 0
-1 -28 0
-27 -1 29 0
27 -29 0
1 -29 0
28 29 30 0
-28 -30 0
-29 -30 0
24 30 31 0
-24 -31 0
-30 -31 0
-24 -30 32 0
24 -32 0
30 -32 0
31 32 33 0
-31 -33 0
-32 -33 0
-26 33 34 0
26 -34 0
-33 -34 0
32 29 35 0
-32 -35 0
-29 -35 0
36 2 37 0
-36 -37 0
-2 -37 0
-36 -2 38 0
36 -38 0
2 -38 0
37 38 39 0
-37 -39 0
-38 -39 0
-35 39 40 0
35 -40 0
-39 -40 0
35 -39 41 0
-35 -41 0
39 -41 0
40 41 42 0
-40 -42 0
-41 -42 0
-34 42 43 0
34 -43 0
-42 -43 0
41 38 44 0
-41 -44 0
-38 -44 0
45 4 46 0
-45 -46 0
-4 -46 0
-45 -4 47 0
45 -47 0
4 -47 0
46 47 48 0
-46 -48 0
-47 -48 0
-44 48 49 0
44 -49 0
-48 -49 0
44 -48 50 0
-44 -50 0
48 -50 0
49 50 51 0
-49 -51 0
-50 -51 0
-43 51 52 0
43 -52 0
-51 -52 0
15 -52 53 0
-15 -53 0
52 -53 0
-54 6 55 0
54 -55 0
-6 -55 0
54 -6 56 0
-54 -56 0
6 -56 0
55 56 57 0
-55 -57 0
-56 -57 0
50 47 58 0
-50 -58 0
-47 -58 0
57 58 59 0
-57 -59 0
-58 -59 0
-57 -58 60 0
57 -60 0
58 -60 0
59 60 61 0
-59 -61 0
-60 -61 0
7 8 62 0
-7 -62 0
-8 -62 0
62 9 63 0
-62 -63 0
-9 -63 0
34 -42 64 0
-34 -64 0
42 -64 0
64 43 65 0
-64 -65 0
-43 -65 0
-63 -65 66 0
63 -66 0
65 -66 0
1 2 67 0
-1 -67 0
-2 -67 0
67 3 68 0
-67 -68 0
-3 -68 0
18 -19 69 0
-18 -69 0
19 -69 0
69 20 70 0
-69 -70 0
-20 -70 0
-68 -70 71 0
68 -71 0
70 -71 0
-3 -4 72 0
3 -72 0
4 -72 0
72 5 73 0
-72 -73 0
-5 -73 0
20 -25 74 0
-20 -74 0
25 -74 0
74 26 75 0
-74 -75 0
-26 -75 0
73 -75 76 0
-73 -76 0
75 -76 0
71 76 77 0
-71 -77 0
-76 -77 0
-17 -1 78 0
17 -78 0
1 -78 0
78 18 79 0
-78 -79 0
-18 -79 0
68 70 80 0
-68 -80 0
-70 -80 0
-79 80 81 0
79 -81 0
-80 -81 0
17 1 82 0
-17 -82 0
-1 -82 0
82 -16 83 0
-82 -83 0
16 -83 0
-83 22 84 0
83 -84 0
-22 -84 0
-81 84 85 0
81 -85 0
-84 -85 0
-77 85 86 0
77 -86 0
-85 -86 0
-5 6 87 0
5 -87 0
-6 -87 0
87 7 88 0
-87 -88 0
-7 -88 0
26 -33 89 0
-26 -89 0
33 -89 0
89 34 90 0
-89 -90 0
-34 -90 0
88 90 91 0
-88 -91 0
-90 -91 0
86 91 92 0
-86 -92 0
-91 -92 0
-73 75 93 0
73 -93 0
-75 -93 0
-92 93 94 0
92 -94 0
-93 -94 0
66 94 95 0
-66 -95 0
-94 -95 0
-88 -90 96 0
88 -96 0
90 -96 0
-95 96 97 0
95 -97 0
-96 -97 0
63 65 98 0
-63 -98 0
-65 -98 0
97 98 99 0
-97 -99 0
-98 -99 0
9 10 100 0
-9 -100 0
-10 -100 0
100 11 101 0
-100 -101 0
-11 -101 0
43 -51 102 0
-43 -102 0
51 -102 0
102 52 103 0
-102 -103 0
-52 -103 0
-101 -103 104 0
101 -104 0
103 -104 0
99 104 105 0
-99 -105 0
-104 -105 0
101 103 106 0
-101 -106 0
-103 -106 0
105 106 107 0
-105 -107 0
-106 -107 0
-61 -107 108 0
61 -108 0
107 -108 0
-53 -108 109 0
53 -109 0
108 -109 0
53 108 110 0
-53 -110 0
-108 -110 0
-15 52 111 0
15 -111 0
-52 -111 0
61 107 112 0
-61 -112 0
-107 -112 0
111 112 113 0
-111 -113 0
-112 -113 0
-110 113 114 0
110 -114 0
-113 -114 0
109 114 115 0
-109 -115 0
-114 -115 0
115 0
